Solver command line: ['C:\\Program Files\\IBM\\ILOG\\CPLEX_Studio2211\\cplex\\bin\\x64_win64\\cplex.exe']


Welcome to IBM(R) ILOG(R) CPLEX(R) Interactive Optimizer 22.1.1.0
  with Simplex, Mixed Integer & Barrier Optimizers
5725-A06 5725-A29 5724-Y48 5724-Y49 5724-Y54 5724-Y55 5655-Y21
Copyright IBM Corp. 1988, 2022.  All Rights Reserved.

Type 'help' for a list of available commands.
Type 'help' followed by a command name for more
information on commands.

CPLEX> Logfile 'cplex.log' closed.
Logfile 'C:\Users\wangy\Documents\GitHub\re_optimization\result_site_specific\tmp7p8wu7g3.cplex.log' open.
CPLEX> Problem 'C:\Users\wangy\Documents\GitHub\re_optimization\result_site_specific\tmp0q_3m_jy.pyomo.lp' read.
Read time = 0.28 sec. (9.13 ticks)
CPLEX> Problem name         : C:\Users\wangy\Documents\GitHub\re_optimization\result_site_specific\tmp0q_3m_jy.pyomo.lp
Objective sense      : Minimize
Variables            :   65769  [Nneg: 35068,  Free: 8792,  Binary: 9,
                                 Other: 21900]
Objective nonzeros   :      17
Linear constraints   :   87665  [Less: 46741,  Greater: 5,  Equal: 40919]
  Nonzeros           :  225073
  RHS nonzeros       :    3695

Variables            : Min LB: 0.000000         Max UB: 1.000000       
Objective nonzeros   : Min   : 1.000000         Max   : 1.000000       
Linear constraints   :
  Nonzeros           : Min   : 0.002109067      Max   : 100000.0       
  RHS nonzeros       : Min   : 0.03100000       Max   : 100000.0       
CPLEX> Version identifier: 22.1.1.0 | 2022-11-27 | 9160aff4d
Tried aggregator 3 times.
MIP Presolve eliminated 52963 rows and 32520 columns.
Aggregator did 10580 substitutions.
Reduced MIP has 24122 rows, 22669 columns, and 72420 nonzeros.
Reduced MIP has 5 binaries, 0 generals, 0 SOSs, and 0 indicators.
Presolve time = 0.19 sec. (226.16 ticks)
Found incumbent of value 272991.801900 after 0.28 sec. (323.95 ticks)
Probing time = 0.00 sec. (1.26 ticks)
Tried aggregator 1 time.
Detecting symmetries...
Reduced MIP has 24122 rows, 22669 columns, and 72420 nonzeros.
Reduced MIP has 5 binaries, 0 generals, 0 SOSs, and 0 indicators.
Presolve time = 0.03 sec. (46.35 ticks)
Probing time = 0.00 sec. (1.17 ticks)
MIP emphasis: balance optimality and feasibility.
MIP search method: dynamic search.
Parallel mode: deterministic, using up to 16 threads.
Root relaxation solution time = 1.11 sec. (816.42 ticks)

        Nodes                                         Cuts/
   Node  Left     Objective  IInf  Best Integer    Best Bound    ItCnt     Gap

*     0+    0                       272991.8019    -8262.3943           103.03%
      0     0     5238.6772     1   272991.8019     5238.6772       57   98.08%
*     0+    0                         6843.4081     5238.6772            23.45%
*     0+    0                         5614.0583     5238.6772             6.69%
      0     0        cutoff           5614.0583                    547    0.00%
Elapsed time = 1.73 sec. (1657.29 ticks, tree = 0.01 MB, solutions = 3)

Root node processing (before b&c):
  Real time             =    1.73 sec. (1660.46 ticks)
Parallel b&c, 16 threads:
  Real time             =    0.00 sec. (0.00 ticks)
  Sync time (average)   =    0.00 sec.
  Wait time (average)   =    0.00 sec.
                          ------------
Total (root+branch&cut) =    1.73 sec. (1660.46 ticks)

Solution pool: 3 solutions saved.

MIP - Integer optimal solution:  Objective =  5.6140582686e+03
Solution time =    1.75 sec.  Iterations = 547  Nodes = 0
Deterministic time = 1660.65 ticks  (948.94 ticks/sec)

CPLEX> Incumbent solution written to file 'C:\Users\wangy\Documents\GitHub\re_optimization\result_site_specific\tmp7evy8ebl.cplex.sol'.
CPLEX> 
